&DOS
 prefix='Gr_BN' ,
 outdir='./' ,
 fildos='Gr_BN.dos' ,
/

