&CONTROL
title='2 atoms graphene fragment. SCF' ,
calculation = 'scf' ,
verbosity = 'high' ,
restart_mode = 'from_scratch' ,
iprint = 1 ,
nstep = 200 ,
tstress = .true. ,
tprnfor = .true. ,
outdir = './' ,
pseudo_dir = './' ,
prefix = 'Gr_BN' ,
etot_conv_thr = 1.0D-6 ,
forc_conv_thr = 1.0D-5 ,
disk_io = 'default' ,
wf_collect = .true. ,
/                      

&SYSTEM
ibrav = 0 ,
celldm(1) = 4.66384410 ,
nat = 4 ,
ntyp = 3 ,
ecutwfc = 52.0 ,
ecutrho = 208.0 ,
occupations = 'smearing' ,
smearing = 'methfessel-paxton' ,
degauss = 0.02D0 ,
vdw_corr='DFT-D3' ,
/

&ELECTRONS
electron_maxstep = 200 ,
conv_thr = 1.0D-6 ,
mixing_beta = 0.7 ,
diagonalization = 'david' ,
/

ATOMIC_SPECIES
C    12.011    C.pbe-n-kjpaw_psl.0.1.UPF
B    10.817    B.pbe-n-kjpaw_psl.0.1.UPF 
N    14.007    N.pbe-n-kjpaw_psl.0.1.UPF

CELL_PARAMETERS (alat=  4.66384410)
   1.006548260  -0.000041741   0.007895761
  -0.503262609   0.871740539  -0.001251225
   0.012770252   0.005828359   2.946409073

ATOMIC_POSITIONS (crystal)
B             0.3406726002        0.6708866274        0.3773536897
N             0.6739973030        0.3375443697        0.3773848769
C             0.0038353343        0.0031432354        0.8821006547
C             0.3371740062        0.6698159132        0.8821456928

K_POINTS automatic 
24 24 1   0 0 0
