&DOS
 prefix='Gr' ,
 outdir='./' ,
 fildos='Gr.dos' ,
 emin=-21.0 ,
 emax= 15.0 ,
/

