&CONTROL
title='2 atoms graphene fragment. NSCF' ,
calculation = 'nscf' ,
verbosity = 'high' ,
restart_mode = 'from_scratch' ,
iprint = 1 ,
nstep = 200 ,
tstress = .true. ,
tprnfor = .true. ,
outdir = './' ,
pseudo_dir = './' ,
prefix = 'Gr' ,
etot_conv_thr = 1.0D-6 ,
forc_conv_thr = 1.0D-5 ,
disk_io = 'default' ,
wf_collect = .true. ,
/                      

&SYSTEM
ibrav = 0 ,
celldm(1) = 4.65307266 ,
nat = 2 ,
ntyp = 1 ,
ecutwfc = 52.0 ,
ecutrho = 208.0 ,
occupations = 'tetrahedra' ,
/

&ELECTRONS
electron_maxstep = 200 ,
conv_thr = 1.0D-6 ,
mixing_beta = 0.7 ,
diagonalization = 'david' ,
/

ATOMIC_SPECIES
C    12.011    C.pbe-n-kjpaw_psl.0.1.UPF

CELL_PARAMETERS (alat=  4.65307266)
   1.001391311  -0.000000000   0.000000000
  -0.500695655   0.867230314   0.000000000
   0.000000000   0.000000000   4.061243553

ATOMIC_POSITIONS (crystal)
C        0.333333333   0.666666666   0.500000000
C        0.666666666   0.333333333   0.500000000

K_POINTS automatic 
4 4 1   0 0 0
