&BANDS
 outdir='./',
 prefix='Gr',
 filband='Gr.bands',
/

