&BANDS
 outdir='./',
 prefix='Gr_BN',
 filband='Gr_BN.bands',
/

