&CONTROL
title='Unstrained graphene optimization. 2 atoms fragment. VC-RELAX' ,
calculation = 'vc-relax' ,
verbosity = 'high' ,
restart_mode = 'from_scratch' ,
iprint = 1 ,
nstep = 200 ,
tstress = .true. ,
tprnfor = .true. ,
outdir = './' ,
pseudo_dir = './' ,
prefix = 'Gr_BN' ,
etot_conv_thr = 1.0D-5 ,
forc_conv_thr = 1.0D-4 ,	
disk_io = 'default' ,
wf_collect = .true. ,
/                      

&SYSTEM
ibrav = 4 ,
A = 2.468 ,
C = 6.7 ,
nat = 4 ,
ntyp = 3 ,
ecutwfc = 52.0 ,
ecutrho = 208.0 ,
occupations = 'smearing' ,
smearing = 'methfessel-paxton' ,
degauss = 0.02D0 ,
vdw_corr='DFT-D3' ,
/

&ELECTRONS
electron_maxstep = 200 ,
conv_thr = 1.0D-6 ,
mixing_beta = 0.7 ,
diagonalization = 'david' ,
/

&IONS
ion_dynamics = 'bfgs' ,
/

&CELL
cell_dynamics = 'bfgs' ,
press = 0.0D0 ,
press_conv_thr = 0.5 ,
/

ATOMIC_SPECIES
C    12.011    C.pbe-n-kjpaw_psl.0.1.UPF
B    10.817    B.pbe-n-kjpaw_psl.0.1.UPF 
N    14.007    N.pbe-n-kjpaw_psl.0.1.UPF

ATOMIC_POSITIONS (crystal)
B             0.3423193326        0.6712963042        0.4460761010
N             0.6756141088        0.3379604518        0.4459873928
C             0.0045735304        0.0008370855        0.9134733936
C             0.3423193326        0.6712963042        0.9134480267

K_POINTS automatic 
4 4 1   0 0 0
