&CONTROL
title='Unstrained graphene optimization. 2 atoms fragment. SCF' ,
calculation = 'scf' ,
verbosity = 'high' ,
restart_mode = 'from_scratch' ,
iprint = 1 ,
nstep = 200 ,
tstress = .true. ,
tprnfor = .true. ,
outdir = './' ,
pseudo_dir = './' ,
prefix = 'Gr_BN' ,
etot_conv_thr = 1.0D-5 ,
forc_conv_thr = 1.0D-4 ,
disk_io = 'default' ,
wf_collect = .true. ,
/                      

&SYSTEM
ibrav = 0 ,
celldm(1) = 4.66384410 ,
nat = 4 ,
ntyp = 3 ,
ecutwfc = 52.0 ,
ecutrho = 208.0 ,
occupations = 'smearing' ,
smearing = 'methfessel-paxton' ,
degauss = 0.02D0 ,
vdw_corr='DFT-D3' ,
nbnd = 20 ,
/

&ELECTRONS
electron_maxstep = 200 ,
conv_thr = 1.0D-6 ,
mixing_beta = 0.7 ,
diagonalization = 'david' ,
/

ATOMIC_SPECIES
C    12.011    C.pbe-n-kjpaw_psl.0.1.UPF
B    10.817    B.pbe-n-kjpaw_psl.0.1.UPF 
N    14.007    N.pbe-n-kjpaw_psl.0.1.UPF

CELL_PARAMETERS (alat=  4.66384410)
   1.007020458  -0.000002902   0.000448502
  -0.503512695   0.872108749   0.000266931
   0.001127821   0.001430517   2.954726035

ATOMIC_POSITIONS (crystal)
B             0.3399154641        0.6697030666        0.4274965364
N             0.6732599319        0.3363716018        0.4275521371
C             0.0091528550        0.0043198318        0.9319507382
C             0.3424980534        0.6709956456        0.9319855024

K_POINTS automatic 
4 4 1   0 0 0
