&CONTROL
title='Unstrained graphene optimization. 2 atoms fragment. VC-RELAX' ,
calculation = 'vc-relax' ,
verbosity = 'high' ,
restart_mode = 'from_scratch' ,
iprint = 1 ,
nstep = 200 ,
tstress = .true. ,
tprnfor = .true. ,
outdir = './' ,
pseudo_dir = './' ,
prefix = 'Gr' ,
etot_conv_thr = 1.0D-6 ,
forc_conv_thr = 1.0D-5 ,	
disk_io = 'default' ,
wf_collect = .true. ,
/                      

&SYSTEM
ibrav = 4 ,
A = 7.06,
C = 10 ,
nat = 14 ,
ntyp = 2 ,
ecutwfc = 52.0 ,
ecutrho = 208.0 ,
occupations = 'smearing' ,
smearing = 'methfessel-paxton' ,
degauss = 0.02D0 ,
/

&ELECTRONS
electron_maxstep = 200 ,
conv_thr = 1.0D-6 ,
mixing_beta = 0.7 ,
diagonalization = 'david' ,
/

&IONS
ion_dynamics = 'bfgs' ,
/

&CELL
cell_dynamics = 'bfgs' ,
press = 0.0D0 ,
press_conv_thr = 0.5 ,
cell_dofree = '2Dxy' ,
/

ATOMIC_SPECIES
C    12.011    C.pbe-n-kjpaw_psl.0.1.UPF
N 	 14.000    N.pbe-n-kjpaw_psl.1.0.0.UPF

ATOMIC_POSITIONS (crystal)
N 0.000000 1.0000000 0.500000
C 0.100000 0.9000000 0.500000
N 0.010000 0.7000000 0.500000
N 0.300000 0.9500000 0.500000
C 0.380000 0.8500000 0.500000
C 0.100000 0.5500000 0.500000
N 0.280000 0.7000000 0.500000
C 0.400000 0.6000000 0.500000
N 0.550000 0.9000000 0.500000
N 0.010000 0.3500000 0.500000
C 0.750000 0.9000000 0.500000
C 0.150000 0.2500000 0.500000
N 0.630000 0.6500000 0.500000
N 0.350000 0.3700000 0.500000

K_POINTS automatic 
4 4 1   0 0 0
